(set-option :produce-models true)
(set-logic QF_LRA)
(set-info :notes | Strip-packing problem.|)
(declare-fun x0 () Real)
(declare-fun y0 () Real)
(declare-fun x1 () Real)
(declare-fun y1 () Real)
(declare-fun x2 () Real)
(declare-fun y2 () Real)
(declare-fun x3 () Real)
(declare-fun y3 () Real)
(declare-fun x4 () Real)
(declare-fun y4 () Real)
(declare-fun x5 () Real)
(declare-fun y5 () Real)
(declare-fun x6 () Real)
(declare-fun y6 () Real)
(declare-fun x7 () Real)
(declare-fun y7 () Real)
(declare-fun x8 () Real)
(declare-fun y8 () Real)
(declare-fun x9 () Real)
(declare-fun y9 () Real)
(declare-fun x10 () Real)
(declare-fun y10 () Real)
(declare-fun x11 () Real)
(declare-fun y11 () Real)
(declare-fun x12 () Real)
(declare-fun y12 () Real)
(declare-fun x13 () Real)
(declare-fun y13 () Real)
(declare-fun x14 () Real)
(declare-fun y14 () Real)
(declare-fun z () Real)
(declare-fun c () Real)
(assert (and (= c z) (and (>= x0 0) 
(and (>= y0 0) 
(and (>= x1 0) 
(and (>= y1 0) 
(and (>= x2 0) 
(and (>= y2 0) 
(and (>= x3 0) 
(and (>= y3 0) 
(and (>= x4 0) 
(and (>= y4 0) 
(and (>= x5 0) 
(and (>= y5 0) 
(and (>= x6 0) 
(and (>= y6 0) 
(and (>= x7 0) 
(and (>= y7 0) 
(and (>= x8 0) 
(and (>= y8 0) 
(and (>= x9 0) 
(and (>= y9 0) 
(and (>= x10 0) 
(and (>= y10 0) 
(and (>= x11 0) 
(and (>= y11 0) 
(and (>= x12 0) 
(and (>= y12 0) 
(and (>= x13 0) 
(and (>= y13 0) 
(and (>= x14 0) 
(and (>= y14 0) 
(and (>= z 0) 
(and (>= c 0) 
(and (<= (+ x0 0.2918850192) z) 
(and (<= 0.951559666 y0) 
(and (<= y0 1.9364916731) 
(and (<= x0 (- 3.256640389 0.2918850192)) 
(and (>= x0 0) 
(and (<= (+ x1 0.8157463543) z) 
(and (<= 0.8794079368 y1) 
(and (<= y1 1.9364916731) 
(and (<= x1 (- 3.256640389 0.8157463543)) 
(and (>= x1 0) 
(and (<= (+ x2 0.0417906202) z) 
(and (<= 0.8596314099 y2) 
(and (<= y2 1.9364916731) 
(and (<= x2 (- 3.256640389 0.0417906202)) 
(and (>= x2 0) 
(and (<= (+ x3 0.6893187953) z) 
(and (<= 0.809867187 y3) 
(and (<= y3 1.9364916731) 
(and (<= x3 (- 3.256640389 0.6893187953)) 
(and (>= x3 0) 
(and (<= (+ x4 0.1104490602) z) 
(and (<= 0.76825851 y4) 
(and (<= y4 1.9364916731) 
(and (<= x4 (- 3.256640389 0.1104490602)) 
(and (>= x4 0) 
(and (<= (+ x5 0.0405149382) z) 
(and (<= 0.6805481614 y5) 
(and (<= y5 1.9364916731) 
(and (<= x5 (- 3.256640389 0.0405149382)) 
(and (>= x5 0) 
(and (<= (+ x6 0.3485787594) z) 
(and (<= 0.6543551624 y6) 
(and (<= y6 1.9364916731) 
(and (<= x6 (- 3.256640389 0.3485787594)) 
(and (>= x6 0) 
(and (<= (+ x7 0.0388079513) z) 
(and (<= 0.433687083 y7) 
(and (<= y7 1.9364916731) 
(and (<= x7 (- 3.256640389 0.0388079513)) 
(and (>= x7 0) 
(and (<= (+ x8 0.1501915223) z) 
(and (<= 0.4171761086 y8) 
(and (<= y8 1.9364916731) 
(and (<= x8 (- 3.256640389 0.1501915223)) 
(and (>= x8 0) 
(and (<= (+ x9 0.1186326145) z) 
(and (<= 0.4104441832 y9) 
(and (<= y9 1.9364916731) 
(and (<= x9 (- 3.256640389 0.1186326145)) 
(and (>= x9 0) 
(and (<= (+ x10 0.3016146919) z) 
(and (<= 0.3876753797 y10) 
(and (<= y10 1.9364916731) 
(and (<= x10 (- 3.256640389 0.3016146919)) 
(and (>= x10 0) 
(and (<= (+ x11 0.0620110949) z) 
(and (<= 0.2260478587 y11) 
(and (<= y11 1.9364916731) 
(and (<= x11 (- 3.256640389 0.0620110949)) 
(and (>= x11 0) 
(and (<= (+ x12 0.3147396316) z) 
(and (<= 0.0761508314 y12) 
(and (<= y12 1.9364916731) 
(and (<= x12 (- 3.256640389 0.3147396316)) 
(and (>= x12 0) 
(and (<= (+ x13 0.3988577114) z) 
(and (<= 0.0679123957 y13) 
(and (<= y13 1.9364916731) 
(and (<= x13 (- 3.256640389 0.3988577114)) 
(and (>= x13 0) 
(and (<= (+ x14 0.9763838529) z) 
(and (<= 0.0013693463 y14) 
(and (<= y14 1.9364916731) 
(and (<= x14 (- 3.256640389 0.9763838529)) 
(and (>= x14 0) 
(and (<= c 3.256640389) 
(and (or (<= (+ x0 0.2918850192) x1) (or (<= (+ x1 0.8157463543) x0) (or (>= (- y0 0.951559666) y1) (or (>= (- y1 0.8794079368) y0))))) 
(and (or (<= (+ x0 0.2918850192) x2) (or (<= (+ x2 0.0417906202) x0) (or (>= (- y0 0.951559666) y2) (or (>= (- y2 0.8596314099) y0))))) 
(and (or (<= (+ x0 0.2918850192) x3) (or (<= (+ x3 0.6893187953) x0) (or (>= (- y0 0.951559666) y3) (or (>= (- y3 0.809867187) y0))))) 
(and (or (<= (+ x0 0.2918850192) x4) (or (<= (+ x4 0.1104490602) x0) (or (>= (- y0 0.951559666) y4) (or (>= (- y4 0.76825851) y0))))) 
(and (or (<= (+ x0 0.2918850192) x5) (or (<= (+ x5 0.0405149382) x0) (or (>= (- y0 0.951559666) y5) (or (>= (- y5 0.6805481614) y0))))) 
(and (or (<= (+ x0 0.2918850192) x6) (or (<= (+ x6 0.3485787594) x0) (or (>= (- y0 0.951559666) y6) (or (>= (- y6 0.6543551624) y0))))) 
(and (or (<= (+ x0 0.2918850192) x7) (or (<= (+ x7 0.0388079513) x0) (or (>= (- y0 0.951559666) y7) (or (>= (- y7 0.433687083) y0))))) 
(and (or (<= (+ x0 0.2918850192) x8) (or (<= (+ x8 0.1501915223) x0) (or (>= (- y0 0.951559666) y8) (or (>= (- y8 0.4171761086) y0))))) 
(and (or (<= (+ x0 0.2918850192) x9) (or (<= (+ x9 0.1186326145) x0) (or (>= (- y0 0.951559666) y9) (or (>= (- y9 0.4104441832) y0))))) 
(and (or (<= (+ x0 0.2918850192) x10) (or (<= (+ x10 0.3016146919) x0) (or (>= (- y0 0.951559666) y10) (or (>= (- y10 0.3876753797) y0))))) 
(and (or (<= (+ x0 0.2918850192) x11) (or (<= (+ x11 0.0620110949) x0) (or (>= (- y0 0.951559666) y11) (or (>= (- y11 0.2260478587) y0))))) 
(and (or (<= (+ x0 0.2918850192) x12) (or (<= (+ x12 0.3147396316) x0) (or (>= (- y0 0.951559666) y12) (or (>= (- y12 0.0761508314) y0))))) 
(and (or (<= (+ x0 0.2918850192) x13) (or (<= (+ x13 0.3988577114) x0) (or (>= (- y0 0.951559666) y13) (or (>= (- y13 0.0679123957) y0))))) 
(and (or (<= (+ x0 0.2918850192) x14) (or (<= (+ x14 0.9763838529) x0) (or (>= (- y0 0.951559666) y14) (or (>= (- y14 0.0013693463) y0))))) 
(and (or (<= (+ x1 0.8157463543) x2) (or (<= (+ x2 0.0417906202) x1) (or (>= (- y1 0.8794079368) y2) (or (>= (- y2 0.8596314099) y1))))) 
(and (or (<= (+ x1 0.8157463543) x3) (or (<= (+ x3 0.6893187953) x1) (or (>= (- y1 0.8794079368) y3) (or (>= (- y3 0.809867187) y1))))) 
(and (or (<= (+ x1 0.8157463543) x4) (or (<= (+ x4 0.1104490602) x1) (or (>= (- y1 0.8794079368) y4) (or (>= (- y4 0.76825851) y1))))) 
(and (or (<= (+ x1 0.8157463543) x5) (or (<= (+ x5 0.0405149382) x1) (or (>= (- y1 0.8794079368) y5) (or (>= (- y5 0.6805481614) y1))))) 
(and (or (<= (+ x1 0.8157463543) x6) (or (<= (+ x6 0.3485787594) x1) (or (>= (- y1 0.8794079368) y6) (or (>= (- y6 0.6543551624) y1))))) 
(and (or (<= (+ x1 0.8157463543) x7) (or (<= (+ x7 0.0388079513) x1) (or (>= (- y1 0.8794079368) y7) (or (>= (- y7 0.433687083) y1))))) 
(and (or (<= (+ x1 0.8157463543) x8) (or (<= (+ x8 0.1501915223) x1) (or (>= (- y1 0.8794079368) y8) (or (>= (- y8 0.4171761086) y1))))) 
(and (or (<= (+ x1 0.8157463543) x9) (or (<= (+ x9 0.1186326145) x1) (or (>= (- y1 0.8794079368) y9) (or (>= (- y9 0.4104441832) y1))))) 
(and (or (<= (+ x1 0.8157463543) x10) (or (<= (+ x10 0.3016146919) x1) (or (>= (- y1 0.8794079368) y10) (or (>= (- y10 0.3876753797) y1))))) 
(and (or (<= (+ x1 0.8157463543) x11) (or (<= (+ x11 0.0620110949) x1) (or (>= (- y1 0.8794079368) y11) (or (>= (- y11 0.2260478587) y1))))) 
(and (or (<= (+ x1 0.8157463543) x12) (or (<= (+ x12 0.3147396316) x1) (or (>= (- y1 0.8794079368) y12) (or (>= (- y12 0.0761508314) y1))))) 
(and (or (<= (+ x1 0.8157463543) x13) (or (<= (+ x13 0.3988577114) x1) (or (>= (- y1 0.8794079368) y13) (or (>= (- y13 0.0679123957) y1))))) 
(and (or (<= (+ x1 0.8157463543) x14) (or (<= (+ x14 0.9763838529) x1) (or (>= (- y1 0.8794079368) y14) (or (>= (- y14 0.0013693463) y1))))) 
(and (or (<= (+ x2 0.0417906202) x3) (or (<= (+ x3 0.6893187953) x2) (or (>= (- y2 0.8596314099) y3) (or (>= (- y3 0.809867187) y2))))) 
(and (or (<= (+ x2 0.0417906202) x4) (or (<= (+ x4 0.1104490602) x2) (or (>= (- y2 0.8596314099) y4) (or (>= (- y4 0.76825851) y2))))) 
(and (or (<= (+ x2 0.0417906202) x5) (or (<= (+ x5 0.0405149382) x2) (or (>= (- y2 0.8596314099) y5) (or (>= (- y5 0.6805481614) y2))))) 
(and (or (<= (+ x2 0.0417906202) x6) (or (<= (+ x6 0.3485787594) x2) (or (>= (- y2 0.8596314099) y6) (or (>= (- y6 0.6543551624) y2))))) 
(and (or (<= (+ x2 0.0417906202) x7) (or (<= (+ x7 0.0388079513) x2) (or (>= (- y2 0.8596314099) y7) (or (>= (- y7 0.433687083) y2))))) 
(and (or (<= (+ x2 0.0417906202) x8) (or (<= (+ x8 0.1501915223) x2) (or (>= (- y2 0.8596314099) y8) (or (>= (- y8 0.4171761086) y2))))) 
(and (or (<= (+ x2 0.0417906202) x9) (or (<= (+ x9 0.1186326145) x2) (or (>= (- y2 0.8596314099) y9) (or (>= (- y9 0.4104441832) y2))))) 
(and (or (<= (+ x2 0.0417906202) x10) (or (<= (+ x10 0.3016146919) x2) (or (>= (- y2 0.8596314099) y10) (or (>= (- y10 0.3876753797) y2))))) 
(and (or (<= (+ x2 0.0417906202) x11) (or (<= (+ x11 0.0620110949) x2) (or (>= (- y2 0.8596314099) y11) (or (>= (- y11 0.2260478587) y2))))) 
(and (or (<= (+ x2 0.0417906202) x12) (or (<= (+ x12 0.3147396316) x2) (or (>= (- y2 0.8596314099) y12) (or (>= (- y12 0.0761508314) y2))))) 
(and (or (<= (+ x2 0.0417906202) x13) (or (<= (+ x13 0.3988577114) x2) (or (>= (- y2 0.8596314099) y13) (or (>= (- y13 0.0679123957) y2))))) 
(and (or (<= (+ x2 0.0417906202) x14) (or (<= (+ x14 0.9763838529) x2) (or (>= (- y2 0.8596314099) y14) (or (>= (- y14 0.0013693463) y2))))) 
(and (or (<= (+ x3 0.6893187953) x4) (or (<= (+ x4 0.1104490602) x3) (or (>= (- y3 0.809867187) y4) (or (>= (- y4 0.76825851) y3))))) 
(and (or (<= (+ x3 0.6893187953) x5) (or (<= (+ x5 0.0405149382) x3) (or (>= (- y3 0.809867187) y5) (or (>= (- y5 0.6805481614) y3))))) 
(and (or (<= (+ x3 0.6893187953) x6) (or (<= (+ x6 0.3485787594) x3) (or (>= (- y3 0.809867187) y6) (or (>= (- y6 0.6543551624) y3))))) 
(and (or (<= (+ x3 0.6893187953) x7) (or (<= (+ x7 0.0388079513) x3) (or (>= (- y3 0.809867187) y7) (or (>= (- y7 0.433687083) y3))))) 
(and (or (<= (+ x3 0.6893187953) x8) (or (<= (+ x8 0.1501915223) x3) (or (>= (- y3 0.809867187) y8) (or (>= (- y8 0.4171761086) y3))))) 
(and (or (<= (+ x3 0.6893187953) x9) (or (<= (+ x9 0.1186326145) x3) (or (>= (- y3 0.809867187) y9) (or (>= (- y9 0.4104441832) y3))))) 
(and (or (<= (+ x3 0.6893187953) x10) (or (<= (+ x10 0.3016146919) x3) (or (>= (- y3 0.809867187) y10) (or (>= (- y10 0.3876753797) y3))))) 
(and (or (<= (+ x3 0.6893187953) x11) (or (<= (+ x11 0.0620110949) x3) (or (>= (- y3 0.809867187) y11) (or (>= (- y11 0.2260478587) y3))))) 
(and (or (<= (+ x3 0.6893187953) x12) (or (<= (+ x12 0.3147396316) x3) (or (>= (- y3 0.809867187) y12) (or (>= (- y12 0.0761508314) y3))))) 
(and (or (<= (+ x3 0.6893187953) x13) (or (<= (+ x13 0.3988577114) x3) (or (>= (- y3 0.809867187) y13) (or (>= (- y13 0.0679123957) y3))))) 
(and (or (<= (+ x3 0.6893187953) x14) (or (<= (+ x14 0.9763838529) x3) (or (>= (- y3 0.809867187) y14) (or (>= (- y14 0.0013693463) y3))))) 
(and (or (<= (+ x4 0.1104490602) x5) (or (<= (+ x5 0.0405149382) x4) (or (>= (- y4 0.76825851) y5) (or (>= (- y5 0.6805481614) y4))))) 
(and (or (<= (+ x4 0.1104490602) x6) (or (<= (+ x6 0.3485787594) x4) (or (>= (- y4 0.76825851) y6) (or (>= (- y6 0.6543551624) y4))))) 
(and (or (<= (+ x4 0.1104490602) x7) (or (<= (+ x7 0.0388079513) x4) (or (>= (- y4 0.76825851) y7) (or (>= (- y7 0.433687083) y4))))) 
(and (or (<= (+ x4 0.1104490602) x8) (or (<= (+ x8 0.1501915223) x4) (or (>= (- y4 0.76825851) y8) (or (>= (- y8 0.4171761086) y4))))) 
(and (or (<= (+ x4 0.1104490602) x9) (or (<= (+ x9 0.1186326145) x4) (or (>= (- y4 0.76825851) y9) (or (>= (- y9 0.4104441832) y4))))) 
(and (or (<= (+ x4 0.1104490602) x10) (or (<= (+ x10 0.3016146919) x4) (or (>= (- y4 0.76825851) y10) (or (>= (- y10 0.3876753797) y4))))) 
(and (or (<= (+ x4 0.1104490602) x11) (or (<= (+ x11 0.0620110949) x4) (or (>= (- y4 0.76825851) y11) (or (>= (- y11 0.2260478587) y4))))) 
(and (or (<= (+ x4 0.1104490602) x12) (or (<= (+ x12 0.3147396316) x4) (or (>= (- y4 0.76825851) y12) (or (>= (- y12 0.0761508314) y4))))) 
(and (or (<= (+ x4 0.1104490602) x13) (or (<= (+ x13 0.3988577114) x4) (or (>= (- y4 0.76825851) y13) (or (>= (- y13 0.0679123957) y4))))) 
(and (or (<= (+ x4 0.1104490602) x14) (or (<= (+ x14 0.9763838529) x4) (or (>= (- y4 0.76825851) y14) (or (>= (- y14 0.0013693463) y4))))) 
(and (or (<= (+ x5 0.0405149382) x6) (or (<= (+ x6 0.3485787594) x5) (or (>= (- y5 0.6805481614) y6) (or (>= (- y6 0.6543551624) y5))))) 
(and (or (<= (+ x5 0.0405149382) x7) (or (<= (+ x7 0.0388079513) x5) (or (>= (- y5 0.6805481614) y7) (or (>= (- y7 0.433687083) y5))))) 
(and (or (<= (+ x5 0.0405149382) x8) (or (<= (+ x8 0.1501915223) x5) (or (>= (- y5 0.6805481614) y8) (or (>= (- y8 0.4171761086) y5))))) 
(and (or (<= (+ x5 0.0405149382) x9) (or (<= (+ x9 0.1186326145) x5) (or (>= (- y5 0.6805481614) y9) (or (>= (- y9 0.4104441832) y5))))) 
(and (or (<= (+ x5 0.0405149382) x10) (or (<= (+ x10 0.3016146919) x5) (or (>= (- y5 0.6805481614) y10) (or (>= (- y10 0.3876753797) y5))))) 
(and (or (<= (+ x5 0.0405149382) x11) (or (<= (+ x11 0.0620110949) x5) (or (>= (- y5 0.6805481614) y11) (or (>= (- y11 0.2260478587) y5))))) 
(and (or (<= (+ x5 0.0405149382) x12) (or (<= (+ x12 0.3147396316) x5) (or (>= (- y5 0.6805481614) y12) (or (>= (- y12 0.0761508314) y5))))) 
(and (or (<= (+ x5 0.0405149382) x13) (or (<= (+ x13 0.3988577114) x5) (or (>= (- y5 0.6805481614) y13) (or (>= (- y13 0.0679123957) y5))))) 
(and (or (<= (+ x5 0.0405149382) x14) (or (<= (+ x14 0.9763838529) x5) (or (>= (- y5 0.6805481614) y14) (or (>= (- y14 0.0013693463) y5))))) 
(and (or (<= (+ x6 0.3485787594) x7) (or (<= (+ x7 0.0388079513) x6) (or (>= (- y6 0.6543551624) y7) (or (>= (- y7 0.433687083) y6))))) 
(and (or (<= (+ x6 0.3485787594) x8) (or (<= (+ x8 0.1501915223) x6) (or (>= (- y6 0.6543551624) y8) (or (>= (- y8 0.4171761086) y6))))) 
(and (or (<= (+ x6 0.3485787594) x9) (or (<= (+ x9 0.1186326145) x6) (or (>= (- y6 0.6543551624) y9) (or (>= (- y9 0.4104441832) y6))))) 
(and (or (<= (+ x6 0.3485787594) x10) (or (<= (+ x10 0.3016146919) x6) (or (>= (- y6 0.6543551624) y10) (or (>= (- y10 0.3876753797) y6))))) 
(and (or (<= (+ x6 0.3485787594) x11) (or (<= (+ x11 0.0620110949) x6) (or (>= (- y6 0.6543551624) y11) (or (>= (- y11 0.2260478587) y6))))) 
(and (or (<= (+ x6 0.3485787594) x12) (or (<= (+ x12 0.3147396316) x6) (or (>= (- y6 0.6543551624) y12) (or (>= (- y12 0.0761508314) y6))))) 
(and (or (<= (+ x6 0.3485787594) x13) (or (<= (+ x13 0.3988577114) x6) (or (>= (- y6 0.6543551624) y13) (or (>= (- y13 0.0679123957) y6))))) 
(and (or (<= (+ x6 0.3485787594) x14) (or (<= (+ x14 0.9763838529) x6) (or (>= (- y6 0.6543551624) y14) (or (>= (- y14 0.0013693463) y6))))) 
(and (or (<= (+ x7 0.0388079513) x8) (or (<= (+ x8 0.1501915223) x7) (or (>= (- y7 0.433687083) y8) (or (>= (- y8 0.4171761086) y7))))) 
(and (or (<= (+ x7 0.0388079513) x9) (or (<= (+ x9 0.1186326145) x7) (or (>= (- y7 0.433687083) y9) (or (>= (- y9 0.4104441832) y7))))) 
(and (or (<= (+ x7 0.0388079513) x10) (or (<= (+ x10 0.3016146919) x7) (or (>= (- y7 0.433687083) y10) (or (>= (- y10 0.3876753797) y7))))) 
(and (or (<= (+ x7 0.0388079513) x11) (or (<= (+ x11 0.0620110949) x7) (or (>= (- y7 0.433687083) y11) (or (>= (- y11 0.2260478587) y7))))) 
(and (or (<= (+ x7 0.0388079513) x12) (or (<= (+ x12 0.3147396316) x7) (or (>= (- y7 0.433687083) y12) (or (>= (- y12 0.0761508314) y7))))) 
(and (or (<= (+ x7 0.0388079513) x13) (or (<= (+ x13 0.3988577114) x7) (or (>= (- y7 0.433687083) y13) (or (>= (- y13 0.0679123957) y7))))) 
(and (or (<= (+ x7 0.0388079513) x14) (or (<= (+ x14 0.9763838529) x7) (or (>= (- y7 0.433687083) y14) (or (>= (- y14 0.0013693463) y7))))) 
(and (or (<= (+ x8 0.1501915223) x9) (or (<= (+ x9 0.1186326145) x8) (or (>= (- y8 0.4171761086) y9) (or (>= (- y9 0.4104441832) y8))))) 
(and (or (<= (+ x8 0.1501915223) x10) (or (<= (+ x10 0.3016146919) x8) (or (>= (- y8 0.4171761086) y10) (or (>= (- y10 0.3876753797) y8))))) 
(and (or (<= (+ x8 0.1501915223) x11) (or (<= (+ x11 0.0620110949) x8) (or (>= (- y8 0.4171761086) y11) (or (>= (- y11 0.2260478587) y8))))) 
(and (or (<= (+ x8 0.1501915223) x12) (or (<= (+ x12 0.3147396316) x8) (or (>= (- y8 0.4171761086) y12) (or (>= (- y12 0.0761508314) y8))))) 
(and (or (<= (+ x8 0.1501915223) x13) (or (<= (+ x13 0.3988577114) x8) (or (>= (- y8 0.4171761086) y13) (or (>= (- y13 0.0679123957) y8))))) 
(and (or (<= (+ x8 0.1501915223) x14) (or (<= (+ x14 0.9763838529) x8) (or (>= (- y8 0.4171761086) y14) (or (>= (- y14 0.0013693463) y8))))) 
(and (or (<= (+ x9 0.1186326145) x10) (or (<= (+ x10 0.3016146919) x9) (or (>= (- y9 0.4104441832) y10) (or (>= (- y10 0.3876753797) y9))))) 
(and (or (<= (+ x9 0.1186326145) x11) (or (<= (+ x11 0.0620110949) x9) (or (>= (- y9 0.4104441832) y11) (or (>= (- y11 0.2260478587) y9))))) 
(and (or (<= (+ x9 0.1186326145) x12) (or (<= (+ x12 0.3147396316) x9) (or (>= (- y9 0.4104441832) y12) (or (>= (- y12 0.0761508314) y9))))) 
(and (or (<= (+ x9 0.1186326145) x13) (or (<= (+ x13 0.3988577114) x9) (or (>= (- y9 0.4104441832) y13) (or (>= (- y13 0.0679123957) y9))))) 
(and (or (<= (+ x9 0.1186326145) x14) (or (<= (+ x14 0.9763838529) x9) (or (>= (- y9 0.4104441832) y14) (or (>= (- y14 0.0013693463) y9))))) 
(and (or (<= (+ x10 0.3016146919) x11) (or (<= (+ x11 0.0620110949) x10) (or (>= (- y10 0.3876753797) y11) (or (>= (- y11 0.2260478587) y10))))) 
(and (or (<= (+ x10 0.3016146919) x12) (or (<= (+ x12 0.3147396316) x10) (or (>= (- y10 0.3876753797) y12) (or (>= (- y12 0.0761508314) y10))))) 
(and (or (<= (+ x10 0.3016146919) x13) (or (<= (+ x13 0.3988577114) x10) (or (>= (- y10 0.3876753797) y13) (or (>= (- y13 0.0679123957) y10))))) 
(and (or (<= (+ x10 0.3016146919) x14) (or (<= (+ x14 0.9763838529) x10) (or (>= (- y10 0.3876753797) y14) (or (>= (- y14 0.0013693463) y10))))) 
(and (or (<= (+ x11 0.0620110949) x12) (or (<= (+ x12 0.3147396316) x11) (or (>= (- y11 0.2260478587) y12) (or (>= (- y12 0.0761508314) y11))))) 
(and (or (<= (+ x11 0.0620110949) x13) (or (<= (+ x13 0.3988577114) x11) (or (>= (- y11 0.2260478587) y13) (or (>= (- y13 0.0679123957) y11))))) 
(and (or (<= (+ x11 0.0620110949) x14) (or (<= (+ x14 0.9763838529) x11) (or (>= (- y11 0.2260478587) y14) (or (>= (- y14 0.0013693463) y11))))) 
(and (or (<= (+ x12 0.3147396316) x13) (or (<= (+ x13 0.3988577114) x12) (or (>= (- y12 0.0761508314) y13) (or (>= (- y13 0.0679123957) y12))))) 
(and (or (<= (+ x12 0.3147396316) x14) (or (<= (+ x14 0.9763838529) x12) (or (>= (- y12 0.0761508314) y14) (or (>= (- y14 0.0013693463) y12))))) 
(and (or (<= (+ x13 0.3988577114) x14) (or (<= (+ x14 0.9763838529) x13) (or (>= (- y13 0.0679123957) y14) (or (>= (- y14 0.0013693463) y13))))) )))))))))))))))))))))))))))))))))))))))))))))))))))))))))))))))))))))))))))))))))))))))))))))))))))))))))))))))))))))))))))))))))))))))))))))))))))))))))))))))))))))))))))))))))))))))))))))))))))))))))))))))))))))))
(minimize c)
(check-sat)
(get-objectives)
(exit)
